\ LP format - for model browsing. Use MPS format to capture full model detail.
Minimize
  - 2.588523808163561e+12 y_0 - 1.9475027630524225e+11 y_1 + [ y_0 ^2
   + y_1 ^2 ] / 2 
Subject To
 g2: y_0 - 2 y_1 = -1
 g1: [ - 0.25 y_0 ^2 - y_1 ^2 ] >= -1
Bounds
 y_0 free
 y_1 free
End
